instances/knapsack/discrete/knapsack_40_2.kp
53547
40
171

82 8.2 47
51 5.1 75
5 0.5 45
90 9.0 61
11 1.1 2
64 6.4 10
96 9.6 94
2 0.2 100
32 3.2 39
53 5.3 47
2 0.2 100
18 1.8 52
31 3.1 76
51 5.1 43
27 2.7 76
19 1.9 53
64 6.4 63
23 2.3 7
4 0.4 75
37 3.7 50
24 2.4 90
94 9.4 16
43 4.3 37
29 2.9 73
11 1.1 54
79 7.9 67
77 7.7 17
82 8.2 88
68 6.8 51
42 4.2 85
24 2.4 94
38 3.8 1
94 9.4 45
52 5.2 20
67 6.7 80
48 4.8 82
47 4.7 82
63 6.3 88
43 4.3 23
13 1.3 40

68160
193

[4.26 4.38 1.1 1.61 2.32 0.5 3.1 3.29 3.48 4.01 0.86 1.78 3.46 3.91 1.56 0.15 1.31 4.57 1.93 4.8 1.56 0.77 4.37 2.32 1.77 4.12 4.2 0.0 2.58 1.11 0.92 0.65 2.77 2.55 1.98 4.51 1.48 3.56 3.56 2.32]

[23 43 5 90 11 41 72 47 100 49 87 90 11 87 4 12 100 83 68 37 44 43 11 46 48 63 17 79 25 38 65 59 67 44 87 72 91 12 23 42]
